Version identifier: 22.1.0.0 | 2022-03-09 | 1a383f8ce
CPXPARAM_Threads                                 1
CPXPARAM_MIP_Strategy_VariableSelect             3
CPXPARAM_TimeLimit                               599.73730795999995
1 of 1 MIP starts provided solutions.
MIP start 'm1' defined initial solution with objective 93.0000.
Tried aggregator 2 times.
MIP Presolve eliminated 41 rows and 1 columns.
MIP Presolve added 28 rows and 7 columns.
MIP Presolve modified 120 coefficients.
Aggregator did 7 substitutions.
Reduced MIP has 901 rows, 2100 columns, and 25160 nonzeros.
Reduced MIP has 2100 binaries, 0 generals, 0 SOSs, and 0 indicators.
Presolve time = 0.04 sec. (55.87 ticks)
Probing time = 0.01 sec. (8.47 ticks)
Tried aggregator 1 time.
Detecting symmetries...
MIP Presolve modified 13 coefficients.
Reduced MIP has 901 rows, 2100 columns, and 25571 nonzeros.
Reduced MIP has 2100 binaries, 0 generals, 0 SOSs, and 0 indicators.
Presolve time = 0.02 sec. (28.51 ticks)
Probing time = 0.01 sec. (8.53 ticks)
Clique table members: 495.
MIP emphasis: balance optimality and feasibility.
MIP search method: dynamic search.
Parallel mode: none, using 1 thread.
Root relaxation solution time = 0.15 sec. (157.40 ticks)

        Nodes                                         Cuts/
   Node  Left     Objective  IInf  Best Integer    Best Bound    ItCnt     Gap

*     0+    0                           93.0000     5050.0000              --- 
      0     0      100.0000   431       93.0000      100.0000     1639    7.53%
Detecting symmetries...
      0     2      100.0000   107       93.0000      100.0000     1639    7.53%
Elapsed time = 2.24 sec. (2157.02 ticks, tree = 0.01 MB, solutions = 1)
      1     3      100.0000   359       93.0000      100.0000     4363    7.53%
      2     4      100.0000   425       93.0000      100.0000     6005    7.53%
      4     6      100.0000   207       93.0000      100.0000     7986    7.53%
      6     8      100.0000   204       93.0000      100.0000     9461    7.53%
      7     9      100.0000   273       93.0000      100.0000    12807    7.53%
      9    11      100.0000   346       93.0000      100.0000    14503    7.53%
     10    12      100.0000   287       93.0000      100.0000    16201    7.53%
     12    14      100.0000   274       93.0000      100.0000    16785    7.53%
     15    17      100.0000   260       93.0000      100.0000    17933    7.53%
     24    26      100.0000   184       93.0000      100.0000    22347    7.53%
Elapsed time = 6.34 sec. (6262.17 ticks, tree = 0.03 MB, solutions = 1)
     32    34      100.0000   166       93.0000      100.0000    27847    7.53%
     41    43      100.0000   150       93.0000      100.0000    32644    7.53%
     55    53       99.0000   134       93.0000      100.0000    39666    7.53%
     69    65       99.0000    51       93.0000      100.0000    49903    7.53%
     88    80       98.0000    59       93.0000      100.0000    58890    7.53%
*    96    65      integral     0       98.0000      100.0000    60183    2.04%
    106    71      100.0000   128       98.0000      100.0000    66745    2.04%
    120    81       99.0000   149       98.0000      100.0000    74321    2.04%
    139    90    infeasible             98.0000      100.0000    77020    2.04%
    153    97       99.0000   112       98.0000      100.0000    83323    2.04%
    173   106       99.0000    52       98.0000      100.0000    88702    2.04%
Elapsed time = 17.02 sec. (16141.94 ticks, tree = 0.65 MB, solutions = 2)
    199   111       99.0000   100       98.0000      100.0000    94198    2.04%
    219   121       99.0000    89       98.0000      100.0000    99559    2.04%
    235   125    infeasible             98.0000      100.0000   107531    2.04%
    253   128       99.0000   119       98.0000      100.0000   115779    2.04%
    272   139       99.0000    69       98.0000      100.0000   119924    2.04%
    292   144       99.0000   109       98.0000      100.0000   126926    2.04%
    308   152       99.0000    44       98.0000      100.0000   131674    2.04%
    329   158       99.0000    95       98.0000      100.0000   137766    2.04%
    344   162       99.0000    78       98.0000      100.0000   145049    2.04%
    361   170      100.0000    84       98.0000      100.0000   150653    2.04%
Elapsed time = 27.93 sec. (25957.51 ticks, tree = 1.15 MB, solutions = 2)
    378   174       99.0000    67       98.0000      100.0000   157816    2.04%
    398   181       99.0000    82       98.0000      100.0000   164102    2.04%
    416   185       99.0000    90       98.0000      100.0000   170884    2.04%
    440   189    infeasible             98.0000      100.0000   175180    2.04%
    461   197    infeasible             98.0000      100.0000   178060    2.04%
    480   204      100.0000   126       98.0000      100.0000   182033    2.04%
    496   214      100.0000    94       98.0000      100.0000   187134    2.04%
    515   224    infeasible             98.0000      100.0000   192357    2.04%
    533   230       99.0000    71       98.0000      100.0000   197809    2.04%
*   548    53      integral     0       99.0000      100.0000   201640    1.01%
    552    54      100.0000    86       99.0000      100.0000   203241    1.01%
Elapsed time = 38.75 sec. (35816.96 ticks, tree = 0.24 MB, solutions = 3)
    570    50      100.0000   104       99.0000      100.0000   211393    1.01%
    582    51      100.0000    94       99.0000      100.0000   220779    1.01%
    593    52      100.0000   107       99.0000      100.0000   229703    1.01%
    606    55      100.0000   118       99.0000      100.0000   236468    1.01%
    618    55      100.0000   112       99.0000      100.0000   245577    1.01%
    633    56      100.0000    94       99.0000      100.0000   253359    1.01%
    646    57    infeasible             99.0000      100.0000   261790    1.01%
    660    59      100.0000    82       99.0000      100.0000   269938    1.01%
    675    59      100.0000   101       99.0000      100.0000   278467    1.01%
    692    62      100.0000    80       99.0000      100.0000   288041    1.01%
Elapsed time = 49.67 sec. (45790.41 ticks, tree = 0.29 MB, solutions = 3)
    708    61      100.0000    88       99.0000      100.0000   296470    1.01%
    723    66      100.0000   108       99.0000      100.0000   303169    1.01%
    740    61      100.0000    91       99.0000      100.0000   315594    1.01%
    756    59      100.0000   102       99.0000      100.0000   324421    1.01%
    778    58      100.0000   101       99.0000      100.0000   329220    1.01%
    802    56    infeasible             99.0000      100.0000   334266    1.01%
    824    58      100.0000   119       99.0000      100.0000   337948    1.01%
    846    60      100.0000   103       99.0000      100.0000   341277    1.01%
    870    60      100.0000   114       99.0000      100.0000   344590    1.01%
    889    63      100.0000   128       99.0000      100.0000   348596    1.01%
Elapsed time = 60.24 sec. (55686.47 ticks, tree = 0.32 MB, solutions = 3)
    905    69      100.0000    76       99.0000      100.0000   353315    1.01%
    924    68      100.0000    78       99.0000      100.0000   359965    1.01%
    944    66    infeasible             99.0000      100.0000   365961    1.01%
    964    64      100.0000    86       99.0000      100.0000   372128    1.01%
    980    64      100.0000    82       99.0000      100.0000   379441    1.01%
    994    66      100.0000    76       99.0000      100.0000   387684    1.01%
   1009    67    infeasible             99.0000      100.0000   395400    1.01%
   1025    67      100.0000    84       99.0000      100.0000   402891    1.01%
   1038    64    infeasible             99.0000      100.0000   413222    1.01%
   1055    67      100.0000    85       99.0000      100.0000   418850    1.01%
Elapsed time = 70.90 sec. (65653.72 ticks, tree = 0.32 MB, solutions = 3)
   1077    67    infeasible             99.0000      100.0000   422561    1.01%
   1097    71      100.0000   105       99.0000      100.0000   425233    1.01%
   1120    70      100.0000   115       99.0000      100.0000   429612    1.01%
   1141    73      100.0000    95       99.0000      100.0000   433044    1.01%
   1163    73      100.0000    99       99.0000      100.0000   436775    1.01%
   1184    74      100.0000   102       99.0000      100.0000   440518    1.01%
   1207    71      100.0000    84       99.0000      100.0000   445661    1.01%
   1226    70    infeasible             99.0000      100.0000   451616    1.01%
   1241    73      100.0000   102       99.0000      100.0000   457414    1.01%
   1261    75      100.0000   130       99.0000      100.0000   460981    1.01%
Elapsed time = 81.12 sec. (75460.79 ticks, tree = 0.33 MB, solutions = 3)
   1281    79      100.0000   121       99.0000      100.0000   464304    1.01%
   1303    79      100.0000   108       99.0000      100.0000   467991    1.01%
   1326    80      100.0000   106       99.0000      100.0000   471041    1.01%
   1350    80      100.0000   108       99.0000      100.0000   474497    1.01%
   1370    78    infeasible             99.0000      100.0000   480575    1.01%
   1389    81      100.0000   110       99.0000      100.0000   484990    1.01%
   1409    78      100.0000    86       99.0000      100.0000   491332    1.01%
   1430    79      100.0000    78       99.0000      100.0000   496065    1.01%
   1447    76    infeasible             99.0000      100.0000   504173    1.01%
   1469    76      100.0000   117       99.0000      100.0000   508572    1.01%
Elapsed time = 91.35 sec. (85311.95 ticks, tree = 0.33 MB, solutions = 3)
   1490    77      100.0000    87       99.0000      100.0000   512515    1.01%
   1513    78      100.0000    86       99.0000      100.0000   516060    1.01%
   1535    78      100.0000    96       99.0000      100.0000   519103    1.01%
   1553    80      100.0000    84       99.0000      100.0000   523910    1.01%
   1576    77    infeasible             99.0000      100.0000   528352    1.01%
   1594    79      100.0000   132       99.0000      100.0000   532827    1.01%
   1616    79      100.0000   102       99.0000      100.0000   536510    1.01%
   1640    76    infeasible             99.0000      100.0000   540736    1.01%
   1664    78      100.0000   123       99.0000      100.0000   543683    1.01%
   1753    79      100.0000   100       99.0000      100.0000   558037    1.01%
Elapsed time = 104.42 sec. (97945.69 ticks, tree = 0.33 MB, solutions = 3)
   1834    82      100.0000    96       99.0000      100.0000   575514    1.01%
   1931    77      100.0000   111       99.0000      100.0000   590641    1.01%
   2023    75      100.0000   124       99.0000      100.0000   605947    1.01%
   2119    75      100.0000   104       99.0000      100.0000   618079    1.01%
   2215    75    infeasible             99.0000      100.0000   632301    1.01%
   2311    73      100.0000   119       99.0000      100.0000   646170    1.01%
   2398    78      100.0000   116       99.0000      100.0000   660103    1.01%

Performing restart 1

Repeating presolve.
Tried aggregator 1 time.
MIP Presolve eliminated 1 rows and 100 columns.
Reduced MIP has 900 rows, 2000 columns, and 18310 nonzeros.
Reduced MIP has 2000 binaries, 0 generals, 0 SOSs, and 0 indicators.
Presolve time = 0.01 sec. (9.18 ticks)
Tried aggregator 1 time.
Reduced MIP has 900 rows, 2000 columns, and 18310 nonzeros.
Reduced MIP has 2000 binaries, 0 generals, 0 SOSs, and 0 indicators.
Presolve time = 0.01 sec. (11.52 ticks)
Represolve time = 0.09 sec. (56.49 ticks)
   2414    11      100.0000   354       99.0000      100.0000   673071    1.01%
   2441    30    infeasible             99.0000      100.0000   690351    1.01%
   2488    55      100.0000    26       99.0000      100.0000   714548    1.01%
Elapsed time = 144.70 sec. (136508.84 ticks, tree = 0.29 MB, solutions = 3)
   2547    68      100.0000    62       99.0000      100.0000   735019    1.01%
   2605    83      100.0000    72       99.0000      100.0000   755374    1.01%
   2655   119      100.0000    34       99.0000      100.0000   770557    1.01%
   2737   128      100.0000    34       99.0000      100.0000   792875    1.01%
   2817   126    infeasible             99.0000      100.0000   817641    1.01%
   2874   130      100.0000    78       99.0000      100.0000   844076    1.01%
   2943   141    infeasible             99.0000      100.0000   866074    1.01%
   3002   147      100.0000    58       99.0000      100.0000   891006    1.01%
   3073   145      100.0000    50       99.0000      100.0000   916425    1.01%
   3151   158      100.0000    32       99.0000      100.0000   938551    1.01%
Elapsed time = 188.76 sec. (176949.20 ticks, tree = 1.11 MB, solutions = 3)
   3248   159      100.0000    56       99.0000      100.0000   957922    1.01%
   3303   170      100.0000    37       99.0000      100.0000   980653    1.01%
   3362   178      100.0000    40       99.0000      100.0000  1003091    1.01%
   3426   180      100.0000    58       99.0000      100.0000  1029380    1.01%
   3488   193      100.0000    42       99.0000      100.0000  1053195    1.01%
   3568   191      100.0000    38       99.0000      100.0000  1077585    1.01%
   3642   193      100.0000    78       99.0000      100.0000  1099191    1.01%
   3701   197      100.0000    38       99.0000      100.0000  1124564    1.01%
   3763   208      100.0000    42       99.0000      100.0000  1143933    1.01%
   3821   220    infeasible             99.0000      100.0000  1161529    1.01%
Elapsed time = 230.56 sec. (215588.62 ticks, tree = 1.61 MB, solutions = 3)
   3903   209      100.0000    70       99.0000      100.0000  1184369    1.01%
   3964   219      100.0000    36       99.0000      100.0000  1208067    1.01%
   4027   240      100.0000    72       99.0000      100.0000  1228371    1.01%
   4088   247      100.0000    70       99.0000      100.0000  1251423    1.01%
   4165   269      100.0000    34       99.0000      100.0000  1266445    1.01%
   4222   277      100.0000    73       99.0000      100.0000  1283131    1.01%
   4306   273      100.0000    87       99.0000      100.0000  1304825    1.01%
   4360   283      100.0000    40       99.0000      100.0000  1327084    1.01%
   4418   279    infeasible             99.0000      100.0000  1353572    1.01%
   4497   292      100.0000    45       99.0000      100.0000  1374549    1.01%
Elapsed time = 272.34 sec. (254119.97 ticks, tree = 2.22 MB, solutions = 3)
   4576   283      100.0000    45       99.0000      100.0000  1399972    1.01%
   4635   292    infeasible             99.0000      100.0000  1421569    1.01%
   4705   292      100.0000    38       99.0000      100.0000  1445925    1.01%
   4796   291      100.0000    38       99.0000      100.0000  1467845    1.01%
   4862   307    infeasible             99.0000      100.0000  1487875    1.01%
   4905   315      100.0000    41       99.0000      100.0000  1500131    1.01%
   4977   321      100.0000    96       99.0000      100.0000  1518521    1.01%
   5034   326    infeasible             99.0000      100.0000  1542371    1.01%
   5096   330    infeasible             99.0000      100.0000  1564397    1.01%
   5150   336    infeasible             99.0000      100.0000  1585796    1.01%
Elapsed time = 314.19 sec. (292524.85 ticks, tree = 2.61 MB, solutions = 3)
   5216   336      100.0000    32       99.0000      100.0000  1607057    1.01%
   5285   346    infeasible             99.0000      100.0000  1626470    1.01%
   5339   366      100.0000    30       99.0000      100.0000  1645479    1.01%
   5399   370      100.0000    70       99.0000      100.0000  1668609    1.01%
   5456   385      100.0000    49       99.0000      100.0000  1690758    1.01%
   5516   405      100.0000    48       99.0000      100.0000  1710095    1.01%
   5563   432      100.0000    38       99.0000      100.0000  1726672    1.01%
   5635   433    infeasible             99.0000      100.0000  1749960    1.01%
   5716   446    infeasible             99.0000      100.0000  1767963    1.01%
   5792   453      100.0000    40       99.0000      100.0000  1788858    1.01%
Elapsed time = 355.83 sec. (330957.59 ticks, tree = 3.62 MB, solutions = 3)
   5863   452    infeasible             99.0000      100.0000  1813435    1.01%
   5949   453      100.0000    30       99.0000      100.0000  1832811    1.01%
   6017   453    infeasible             99.0000      100.0000  1855640    1.01%
   6094   426      100.0000    51       99.0000      100.0000  1884010    1.01%
   6154   426    infeasible             99.0000      100.0000  1906456    1.01%
   6205   429      100.0000    34       99.0000      100.0000  1921263    1.01%
   6269   432      100.0000    34       99.0000      100.0000  1942829    1.01%
   6334   427      100.0000    30       99.0000      100.0000  1967958    1.01%
   6397   426    infeasible             99.0000      100.0000  1988803    1.01%
   6466   446      100.0000    44       99.0000      100.0000  2006323    1.01%
Elapsed time = 399.06 sec. (370361.60 ticks, tree = 3.57 MB, solutions = 3)
   6550   444      100.0000    30       99.0000      100.0000  2025218    1.01%
   6618   443      100.0000    36       99.0000      100.0000  2047658    1.01%
   6680   453      100.0000    32       99.0000      100.0000  2068898    1.01%
   6761   453    infeasible             99.0000      100.0000  2089007    1.01%
   6829   469      100.0000    40       99.0000      100.0000  2108407    1.01%
   6900   489      100.0000    43       99.0000      100.0000  2124484    1.01%
   6976   502      100.0000    40       99.0000      100.0000  2142724    1.01%
   7047   520      100.0000    57       99.0000      100.0000  2159861    1.01%
   7123   545      100.0000    65       99.0000      100.0000  2175364    1.01%
   7201   557      100.0000    50       99.0000      100.0000  2193170    1.01%
Elapsed time = 440.88 sec. (408995.08 ticks, tree = 4.58 MB, solutions = 3)
   7276   571      100.0000    32       99.0000      100.0000  2211956    1.01%
   7339   586      100.0000    44       99.0000      100.0000  2231451    1.01%
   7418   580    infeasible             99.0000      100.0000  2253218    1.01%
   7493   567    infeasible             99.0000      100.0000  2277499    1.01%
   7564   585      100.0000    32       99.0000      100.0000  2295023    1.01%
   7653   579    infeasible             99.0000      100.0000  2316472    1.01%
   7727   584      100.0000    42       99.0000      100.0000  2338136    1.01%
   7810   577      100.0000    42       99.0000      100.0000  2359913    1.01%
   7888   571      100.0000    72       99.0000      100.0000  2382617    1.01%
   7980   574      100.0000    30       99.0000      100.0000  2391277    1.01%
Elapsed time = 481.80 sec. (447468.77 ticks, tree = 4.74 MB, solutions = 3)
   8048   587    infeasible             99.0000      100.0000  2402974    1.01%
   8105   601      100.0000    49       99.0000      100.0000  2423258    1.01%
   8221   531      100.0000    34       99.0000      100.0000  2450220    1.01%
   8274   527    infeasible             99.0000      100.0000  2473090    1.01%
   8335   551    infeasible             99.0000      100.0000  2488455    1.01%
   8401   565    infeasible             99.0000      100.0000  2505388    1.01%
   8460   572      100.0000    59       99.0000      100.0000  2524159    1.01%
   8511   577    infeasible             99.0000      100.0000  2544810    1.01%
   8564   581    infeasible             99.0000      100.0000  2566175    1.01%
   8605   579      100.0000    73       99.0000      100.0000  2587562    1.01%
Elapsed time = 526.10 sec. (488251.45 ticks, tree = 4.78 MB, solutions = 3)
   8682   574      100.0000    50       99.0000      100.0000  2608843    1.01%
   8752   564    infeasible             99.0000      100.0000  2632343    1.01%
   8815   571      100.0000    30       99.0000      100.0000  2650806    1.01%
   8884   583    infeasible             99.0000      100.0000  2667807    1.01%
Starting limited solution polishing.
   8954   587      100.0000    42       99.0000      100.0000  2684870    1.01%
   9023   579      100.0000    42       99.0000      100.0000  2705875    1.01%
   9095   583      100.0000    51       99.0000      100.0000  2721580    1.01%
   9167   586      100.0000    47       99.0000      100.0000  2738806    1.01%
   9237   579      100.0000    54       99.0000      100.0000  2759124    1.01%
   9305   583      100.0000    32       99.0000      100.0000  2779157    1.01%
Elapsed time = 567.38 sec. (526620.11 ticks, tree = 4.83 MB, solutions = 3)
   9372   585      100.0000    58       99.0000      100.0000  2799459    1.01%
   9431   593    infeasible             99.0000      100.0000  2820285    1.01%
   9499   594      100.0000    56       99.0000      100.0000  2839707    1.01%
   9568   598      100.0000    40       99.0000      100.0000  2858147    1.01%
   9640   596      100.0000    50       99.0000      100.0000  2878174    1.01%
   9707   604      100.0000    48       99.0000      100.0000  2895113    1.01%
   9780   601      100.0000    34       99.0000      100.0000  2913935    1.01%

Clique cuts applied:  2
Cover cuts applied:  100
Mixed integer rounding cuts applied:  62
Zero-half cuts applied:  1

Root node processing (before b&c):
  Real time             =    2.24 sec. (2157.37 ticks)
Sequential b&c:
  Real time             =  597.50 sec. (554499.49 ticks)
                          ------------
Total (root+branch&cut) =  599.74 sec. (556656.86 ticks)
Primal:	99
Dual:	100
Status:	Feasible
Time:	599.7
Sequence:
	8
	3
	13
	11
	0
	15
	8
	1
	15
	11
	1
	15
	9
	5
	2
	14
	5
	1
	17
	18
	6
	19
	10
	1
	17
	10
	1
	14
	10
	0
	19
	16
	6
	17
	16
	1
	17
	10
	12
	14
	5
	6
	19
	16
	2
	17
	16
	12
	15
	11
	12
	15
	8
	3
	13
	11
	2
	13
	8
	0
	4
	8
	1
	4
	5
	9
	4
	12
	10
	14
	2
	5
	13
	9
	5
	4
	9
	18
	4
	3
	16
	19
	6
	5
	14
	12
	5
	7
	13
	5
	9
	15
	5
	9
	13
	5
	3
	19
	16
